\ LP format - for model browsing. Use MPS format to capture full model detail.
Maximize
  45.51724137931033 z1 + 22.75862068965517 z2 + 38.06896551724138 z3 + 13 z4
   + 24.17241379310347 z5 + 22.62068965517241 z6 + 19 z7
   + 9.413793103448306 z8 + 17.24137931034483 z9 + 31.37931034482758 z10
   + 13 z11 + 43.41379310344824 z12 + 19.93103448275863 z13
   + 31.37931034482757 z14 + 41 z15 + 39 z16 + 36 z17 + 41 z18
   + 47.06896551724137 z19 + 38.44827586206896 z20
Subject To
 constraint1: 47 z1 + 24 z2 + 41 z3 + 14 z4 + 26 z5 + 23 z6 + 19 z7 + 11 z8
   + 18 z9 + 33 z10 + 13 z11 + 46 z12 + 20 z13 + 32 z14 + 41 z15 + 39 z16
   + 36 z17 + 41 z18 + 48 z19 + 40 z20 <= 200
 constraints2_3_&_17: z3 - z17 = 0
 constraints2_7_&_8: z7 - z8 = 0
 constraints2_12_&_16: z12 - z16 = 0
 constraints2_18_&_20: z18 - z20 = 0
 constraints3_2_|_13: z2 + z13 <= 1
 constraints3_3_|_12: z3 + z12 <= 1
 constraints3_6_|_14: z6 + z14 <= 1
 constraints3_7_|_11: z7 + z11 <= 1
 constraints3_9_|_11: z9 + z11 <= 1
 constraints3_9_|_14: z9 + z14 <= 1
 constraints3_12_|_15: z12 + z15 <= 1
 constraints3_12_|_18: z12 + z18 <= 1
 constraints3_13_|_15: z13 + z15 <= 1
 constraints3_13_|_19: z13 + z19 <= 1
 constraints3_15_|_18: z15 + z18 <= 1
 constraints3_18_|_19: z18 + z19 <= 1
Bounds
Binaries
 z1 z2 z3 z4 z5 z6 z7 z8 z9 z10 z11 z12 z13 z14 z15 z16 z17 z18 z19 z20
End
